194365734672649137648255823947319723948192549139548193458193188193548193572763473671935727633332484848548491338548491658193317854913675733758193719281937276371938455467774152653835564786253746377736253783197319743643846197346284378264387237913843773372834861917356473564777777653535352626291